NAME 
ROWS
 N  OBJ
 L  R0      
 L  R1      
 E  R2      
 E  R3      
 E  R4      
 E  R5      
 E  R6      
 E  R7      
 E  R8      
 E  R9      
 E  R10     
 E  R11     
 E  R12     
 E  R13     
 E  R14     
 E  R15     
 E  R16     
COLUMNS
    MARKER    'MARKER'                 'INTORG'
    I0(7)     OBJ       125
    I0(7)     R0        -176
    I0(7)     R1        -76
    I0(7)     R3        17
    I0(7)     R4        8
    I0(7)     R8        14
    I0(7)     R10       12
    I0(7)     R16       1
    I1(7)     OBJ       -78
    I1(7)     R0        197
    I1(7)     R1        -151
    I1(7)     R2        9
    I1(7)     R6        1
    I1(7)     R7        19
    I1(7)     R8        1
    I1(7)     R16       1
    I2(6)     OBJ       -28
    I2(6)     R0        90
    I2(6)     R1        -27
    I2(6)     R2        10
    I2(6)     R8        11
    I2(6)     R10       15
    I2(6)     R16       1
    I3(9)     OBJ       -100
    I3(9)     R0        -112
    I3(9)     R1        -42
    I3(9)     R2        7
    I3(9)     R3        19
    I3(9)     R5        14
    I3(9)     R6        16
    I3(9)     R7        5
    I3(9)     R10       1
    I3(9)     R16       1
    I4(6)     OBJ       68
    I4(6)     R0        110
    I4(6)     R1        57
    I4(6)     R2        5
    I4(6)     R4        -1
    I4(6)     R8        -1
    I4(6)     R16       1
    I5(7)     OBJ       -59
    I5(7)     R0        105
    I5(7)     R1        60
    I5(7)     R2        6
    I5(7)     R3        11
    I5(7)     R8        12
    I5(7)     R9        8
    I5(7)     R16       1
    I6(8)     OBJ       -93
    I6(8)     R0        -66
    I6(8)     R1        -172
    I6(8)     R3        12
    I6(8)     R6        3
    I6(8)     R7        6
    I6(8)     R8        12
    I6(8)     R10       10
    I6(8)     R16       1
    I7(8)     OBJ       31
    I7(8)     R0        -128
    I7(8)     R1        62
    I7(8)     R4        5
    I7(8)     R6        9
    I7(8)     R7        1
    I7(8)     R8        4
    I7(8)     R10       2
    I7(8)     R16       1
    I8(7)     OBJ       42
    I8(7)     R0        -160
    I8(7)     R1        -38
    I8(7)     R6        8
    I8(7)     R7        6
    I8(7)     R8        18
    I8(7)     R9        2
    I8(7)     R16       1
    MARKER    'MARKER'                 'INTEND'
    C9(9)     OBJ       4
    C9(9)     R0        -8
    C9(9)     R1        8
    C9(9)     R2        12
    C9(9)     R3        1
    C9(9)     R4        14
    C9(9)     R6        17
    C9(9)     R7        17
    C9(9)     R8        11
    C9(9)     R11       5
    C10(8)    OBJ       -7
    C10(8)    R0        -8
    C10(8)    R1        -9
    C10(8)    R5        1
    C10(8)    R6        11
    C10(8)    R8        5
    C10(8)    R12       7
    C10(8)    R13       5
    C10(8)    R15       10
    C11(8)    OBJ       5
    C11(8)    R0        -6
    C11(8)    R1        7
    C11(8)    R5        18
    C11(8)    R6        18
    C11(8)    R10       1
    C11(8)    R12       3
    C11(8)    R13       8
    C11(8)    R14       11
    C12(10)   OBJ       -6
    C12(10)   R0        8
    C12(10)   R2        -1
    C12(10)   R4        -1
    C12(10)   R5        7
    C12(10)   R6        5
    C12(10)   R7        15
    C12(10)   R11       15
    C12(10)   R13       -1
    C12(10)   R14       17
    C12(10)   R15       18
    C13(8)    OBJ       -10
    C13(8)    R0        -6
    C13(8)    R1        -7
    C13(8)    R2        15
    C13(8)    R3        9
    C13(8)    R4        8
    C13(8)    R8        19
    C13(8)    R10       3
    C13(8)    R14       15
    C14(11)   OBJ       -2
    C14(11)   R0        -7
    C14(11)   R1        -8
    C14(11)   R2        7
    C14(11)   R4        16
    C14(11)   R7        19
    C14(11)   R8        2
    C14(11)   R9        16
    C14(11)   R10       12
    C14(11)   R11       11
    C14(11)   R12       19
    C14(11)   R14       8
    C15(1)    R2        1
    C16(1)    R3        1
    C17(1)    R4        1
    C18(1)    R5        1
    C19(1)    R6        1
    C20(1)    R7        1
    C21(1)    R8        1
    C22(1)    R9        1
    C23(1)    R10       1
    C24(1)    R11       1
    C25(1)    R12       1
    C26(1)    R13       1
    C27(1)    R14       1
    C28(1)    R15       1
    C29(1)    R16       1
RHS
    RHS1      R0        -3.8544306601683871e+01
    RHS1      R1        -4.4288568896765639e+02
    RHS1      R2        96
    RHS1      R3        72
    RHS1      R4        70
    RHS1      R5        66
    RHS1      R6        93
    RHS1      R7        76
    RHS1      R8        87
    RHS1      R9        85
    RHS1      R10       50
    RHS1      R11       56
    RHS1      R12       95
    RHS1      R13       52
    RHS1      R14       65
    RHS1      R15       85
    RHS1      R16       3
BOUNDS
 UP BND1      I0(7)     1
 UP BND1      I1(7)     1
 UP BND1      I2(6)     1
 UP BND1      I3(9)     1
 UP BND1      I4(6)     1
 UP BND1      I5(7)     1
 UP BND1      I6(8)     1
 UP BND1      I7(8)     1
 UP BND1      I8(7)     1
ENDATA
